certificates/rado_a11_c294_N28.cnf
c Rad2 upper bound instance: x1 + 11*x2 - x3 = 294, interval [1,28]
p cnf 28 136
1 4 27 0
-1 -4 -27 0
1 15 28 0
-1 -15 -28 0
2 5 27 0
-2 -5 -27 0
2 16 28 0
-2 -16 -28 0
3 6 27 0
-3 -6 -27 0
3 17 28 0
-3 -17 -28 0
4 7 27 0
-4 -7 -27 0
4 18 28 0
-4 -18 -28 0
5 8 27 0
-5 -8 -27 0
5 19 28 0
-5 -19 -28 0
6 9 27 0
-6 -9 -27 0
6 20 28 0
-6 -20 -28 0
7 10 27 0
-7 -10 -27 0
7 21 28 0
-7 -21 -28 0
8 11 27 0
-8 -11 -27 0
8 22 28 0
-8 -22 -28 0
1 9 26 0
-1 -9 -26 0
9 12 27 0
-9 -12 -27 0
9 23 28 0
-9 -23 -28 0
2 10 26 0
-2 -10 -26 0
10 13 27 0
-10 -13 -27 0
10 24 28 0
-10 -24 -28 0
3 11 26 0
-3 -11 -26 0
11 14 27 0
-11 -14 -27 0
11 25 28 0
-11 -25 -28 0
4 12 26 0
-4 -12 -26 0
12 15 27 0
-12 -15 -27 0
12 26 28 0
-12 -26 -28 0
5 13 26 0
-5 -13 -26 0
13 16 27 0
-13 -16 -27 0
13 27 28 0
-13 -27 -28 0
6 14 26 0
-6 -14 -26 0
14 17 27 0
-14 -17 -27 0
14 28 0
-14 -28 0
7 15 26 0
-7 -15 -26 0
15 18 27 0
-15 -18 -27 0
8 16 26 0
-8 -16 -26 0
16 19 27 0
-16 -19 -27 0
9 17 26 0
-9 -17 -26 0
17 20 27 0
-17 -20 -27 0
10 18 26 0
-10 -18 -26 0
18 21 27 0
-18 -21 -27 0
11 19 26 0
-11 -19 -26 0
19 22 27 0
-19 -22 -27 0
1 20 25 0
-1 -20 -25 0
12 20 26 0
-12 -20 -26 0
20 23 27 0
-20 -23 -27 0
2 21 25 0
-2 -21 -25 0
13 21 26 0
-13 -21 -26 0
21 24 27 0
-21 -24 -27 0
3 22 25 0
-3 -22 -25 0
14 22 26 0
-14 -22 -26 0
22 25 27 0
-22 -25 -27 0
4 23 25 0
-4 -23 -25 0
15 23 26 0
-15 -23 -26 0
23 26 27 0
-23 -26 -27 0
5 24 25 0
-5 -24 -25 0
16 24 26 0
-16 -24 -26 0
24 27 0
-24 -27 0
6 25 0
-6 -25 0
17 25 26 0
-17 -25 -26 0
25 27 28 0
-25 -27 -28 0
7 25 26 0
-7 -25 -26 0
18 26 0
-18 -26 0
8 25 27 0
-8 -25 -27 0
19 26 27 0
-19 -26 -27 0
9 25 28 0
-9 -25 -28 0
20 26 28 0
-20 -26 -28 0
