certificates/rado_a11_c294_N28.drat
-27 -28 0
-28 0
14 0
27 0
-24 0
-11 0
-17 0
10 0
25 0
3 0
-7 0
-13 0
-22 0
-6 0
-8 0
21 0
0
